\ENCODING=ISO-8859-1
\Problem name: ilog.cplex

Maximize
 obj: 654 x(0)#0 + 668 x(1)#1 + 929 x(2)#2 + 879 x(3)#3 + 767 x(4)#4
      + 517 x(5)#5 + 343 x(6)#6 + 571 x(7)#7 + 788 x(8)#8 + 493 x(9)#9
      + 635 x(10)#10 + 900 x(11)#11 + 961 x(12)#12 + 765 x(13)#13
      + 650 x(14)#14 + 426 x(15)#15 + 786 x(16)#16 + 655 x(17)#17
      + 907 x(18)#18 + 852 x(19)#19 + 615 x(20)#20 + 764 x(21)#21
      + 600 x(22)#22 + 879 x(23)#23 + 524 x(24)#24 + 920 x(25)#25
      + 652 x(26)#26 + 636 x(27)#27 + 842 x(28)#28 + 706 x(29)#29
      + 630 x(30)#30 + 828 x(31)#31 + 883 x(32)#32 + 595 x(33)#33
      + 1029 x(34)#34 + 757 x(35)#35 + 903 x(36)#36 + 516 x(37)#37
      + 647 x(38)#38 + 427 x(39)#39 + 1059 x(40)#40 + 833 x(41)#41
      + 560 x(42)#42 + 766 x(43)#43 + 900 x(44)#44 + 680 x(45)#45
      + 519 x(46)#46 + 671 x(47)#47 + 594 x(48)#48 + 1092 x(49)#49
      + 601 x(50)#50 + 407 x(51)#51 + 897 x(52)#52 + 770 x(53)#53
      + 727 x(54)#54 + 503 x(55)#55 + 605 x(56)#56 + 820 x(57)#57
      + 882 x(58)#58 + 585 x(59)#59 + 938 x(60)#60 + 834 x(61)#61
      + 701 x(62)#62 + 513 x(63)#63 + 1024 x(64)#64 + 575 x(65)#65
      + 720 x(66)#66 + 763 x(67)#67 + 650 x(68)#68 + 530 x(69)#69
      + 710 x(70)#70 + 772 x(71)#71 + 637 x(72)#72 + 608 x(73)#73
      + 393 x(74)#74 + 817 x(75)#75 + 720 x(76)#76 + 1085 x(77)#77
      + 735 x(78)#78 + 917 x(79)#79 + 514 x(80)#80 + 515 x(81)#81
      + 717 x(82)#82 + 1109 x(83)#83 + 698 x(84)#84 + 900 x(85)#85
      + 729 x(86)#86 + 534 x(87)#87 + 608 x(88)#88 + 633 x(89)#89
      + 558 x(90)#90 + 947 x(91)#91 + 1128 x(92)#92 + 586 x(93)#93
      + 991 x(94)#94 + 998 x(95)#95 + 724 x(96)#96 + 653 x(97)#97
      + 766 x(98)#98 + 722 x(99)#99
Subject To
 c1: 22 x(0)#0 + 941 x(1)#1 + 982 x(2)#2 + 821 x(3)#3 + 7 x(4)#4 + 16 x(5)#5
     + 471 x(6)#6 + 932 x(7)#7 + 107 x(8)#8 + 465 x(9)#9 + 692 x(10)#10
     + 528 x(11)#11 + 391 x(12)#12 + 431 x(13)#13 + 442 x(14)#14 + 68 x(15)#15
     + 183 x(16)#16 + 642 x(17)#17 + 784 x(18)#18 + 554 x(19)#19 + 4 x(20)#20
     + 723 x(21)#21 + 334 x(22)#22 + 683 x(23)#23 + 219 x(24)#24 + 708 x(25)#25
     + 102 x(26)#26 + 878 x(27)#27 + 286 x(28)#28 + 167 x(29)#29 + 149 x(30)#30
     + 977 x(31)#31 + 574 x(32)#32 + 624 x(33)#33 + 984 x(34)#34 + 99 x(35)#35
     + 447 x(36)#36 + 945 x(37)#37 + 814 x(38)#38 + 454 x(39)#39 + 617 x(40)#40
     + 865 x(41)#41 + 482 x(42)#42 + 333 x(43)#43 + 887 x(44)#44 + 244 x(45)#45
     + 669 x(46)#46 + 105 x(47)#47 + 26 x(48)#48 + 592 x(49)#49 + 277 x(50)#50
     + 76 x(51)#51 + 372 x(52)#52 + 565 x(53)#53 + 408 x(54)#54 + 345 x(55)#55
     + 524 x(56)#56 + 786 x(57)#57 + 406 x(58)#58 + 441 x(59)#59 + 20 x(60)#60
     + 704 x(61)#61 + 217 x(62)#62 + 167 x(63)#63 + 748 x(64)#64 + 151 x(65)#65
     + 518 x(66)#66 + 606 x(67)#67 + 596 x(68)#68 + 170 x(69)#69 + 369 x(70)#70
     + 184 x(71)#71 + 491 x(72)#72 + 364 x(73)#73 + 874 x(74)#74 + 317 x(75)#75
     + 235 x(76)#76 + 975 x(77)#77 + 481 x(78)#78 + 901 x(79)#79 + 225 x(80)#80
     + 320 x(81)#81 + 786 x(82)#82 + 678 x(83)#83 + 613 x(84)#84 + 252 x(85)#85
     + 529 x(86)#86 + 652 x(87)#87 + 70 x(88)#88 + 816 x(89)#89 + 284 x(90)#90
     + 468 x(91)#91 + 482 x(92)#92 + 691 x(93)#93 + 683 x(94)#94 + 591 x(95)#95
     + 128 x(96)#96 + 53 x(97)#97 + 664 x(98)#98 + 431 x(99)#99 <= 23587
 c2: 807 x(0)#0 + 44 x(1)#1 + 590 x(2)#2 + 202 x(3)#3 + 410 x(4)#4 + 979 x(5)#5
     + 268 x(6)#6 + 9 x(7)#7 + 250 x(8)#8 + 217 x(9)#9 + 326 x(10)#10
     + 191 x(11)#11 + 753 x(12)#12 + 833 x(13)#13 + 303 x(14)#14 + 370 x(15)#15
     + 816 x(16)#16 + 191 x(17)#17 + 641 x(18)#18 + 412 x(19)#19 + 240 x(20)#20
     + 982 x(21)#21 + 432 x(22)#22 + 22 x(23)#23 + 304 x(24)#24 + 161 x(25)#25
     + 793 x(26)#26 + 169 x(27)#27 + 619 x(28)#28 + 888 x(29)#29 + 630 x(30)#30
     + 268 x(31)#31 + 671 x(32)#32 + 495 x(33)#33 + 679 x(34)#34 + 508 x(35)#35
     + 998 x(36)#36 + 453 x(37)#37 + 423 x(38)#38 + 7 x(39)#39 + 452 x(40)#40
     + 441 x(41)#41 + 92 x(42)#42 + 703 x(43)#43 + 677 x(44)#44 + 476 x(45)#45
     + 484 x(46)#46 + 535 x(47)#47 + 235 x(48)#48 + 671 x(49)#49 + 432 x(50)#50
     + 119 x(51)#51 + 738 x(52)#52 + 659 x(53)#53 + 673 x(54)#54 + 7 x(55)#55
     + 589 x(56)#56 + 26 x(57)#57 + 613 x(58)#58 + 437 x(59)#59 + 141 x(60)#60
     + 945 x(61)#61 + 752 x(62)#62 + 655 x(63)#63 + 108 x(64)#64 + 634 x(65)#65
     + 578 x(66)#66 + 95 x(67)#67 + 501 x(68)#68 + 99 x(69)#69 + 229 x(70)#70
     + 289 x(71)#71 + 994 x(72)#72 + 1000 x(73)#73 + 179 x(74)#74
     + 390 x(75)#75 + 770 x(76)#76 + 785 x(77)#77 + 577 x(78)#78 + 94 x(79)#79
     + 529 x(80)#80 + 92 x(81)#81 + 797 x(82)#82 + 727 x(83)#83 + 53 x(84)#84
     + 24 x(85)#85 + 193 x(86)#86 + 168 x(87)#87 + 73 x(88)#88 + 310 x(89)#89
     + 109 x(90)#90 + 924 x(91)#91 + 628 x(92)#92 + 80 x(93)#93 + 190 x(94)#94
     + 663 x(95)#95 + 279 x(96)#96 + 454 x(97)#97 + 904 x(98)#98 + 106 x(99)#99
     <= 22266
 c3: 417 x(0)#0 + 957 x(1)#1 + 629 x(2)#2 + 830 x(3)#3 + 195 x(4)#4
     + 358 x(5)#5 + 194 x(6)#6 + 354 x(7)#7 + 898 x(8)#8 + 96 x(9)#9
     + 886 x(10)#10 + 269 x(11)#11 + 824 x(12)#12 + 501 x(13)#13 + 914 x(14)#14
     + 107 x(15)#15 + 689 x(16)#16 + 981 x(17)#17 + 231 x(18)#18 + 551 x(19)#19
     + 661 x(20)#20 + 220 x(21)#21 + 762 x(22)#22 + 612 x(23)#23 + 107 x(24)#24
     + 572 x(25)#25 + 928 x(26)#26 + 204 x(27)#27 + 976 x(28)#28 + 59 x(29)#29
     + 786 x(30)#30 + 909 x(31)#31 + 794 x(32)#32 + 26 x(33)#33 + 694 x(34)#34
     + 982 x(35)#35 + 312 x(36)#36 + 163 x(37)#37 + 723 x(38)#38 + 157 x(39)#39
     + 709 x(40)#40 + 472 x(41)#41 + 379 x(42)#42 + 894 x(43)#43 + 576 x(44)#44
     + 595 x(45)#45 + 94 x(46)#46 + 587 x(47)#47 + 469 x(48)#48 + 697 x(49)#49
     + 154 x(50)#50 + 742 x(51)#51 + 193 x(52)#52 + 773 x(53)#53 + 796 x(54)#54
     + 639 x(55)#55 + 615 x(56)#56 + 270 x(57)#57 + 845 x(58)#58 + 726 x(59)#59
     + 390 x(60)#60 + 200 x(61)#61 + 862 x(62)#62 + 328 x(63)#63 + 927 x(64)#64
     + 411 x(65)#65 + 857 x(66)#66 + 866 x(67)#67 + 232 x(68)#68 + 638 x(69)#69
     + 93 x(70)#70 + 814 x(71)#71 + 402 x(72)#72 + 10 x(73)#73 + 79 x(74)#74
     + 336 x(75)#75 + 481 x(76)#76 + 414 x(77)#77 + 232 x(78)#78 + 951 x(79)#79
     + 233 x(80)#80 + 605 x(81)#81 + 227 x(82)#82 + 932 x(83)#83 + 139 x(84)#84
     + 937 x(85)#85 + 875 x(86)#86 + 132 x(87)#87 + 210 x(88)#88 + 286 x(89)#89
     + 415 x(90)#90 + 54 x(91)#91 + 649 x(92)#92 + 742 x(93)#93 + 677 x(94)#94
     + 571 x(95)#95 + 969 x(96)#96 + 640 x(97)#97 + 375 x(98)#98 + 976 x(99)#99
     <= 26460
 c4: 779 x(0)#0 + 424 x(1)#1 + 839 x(2)#2 + 29 x(3)#3 + 425 x(4)#4 + 301 x(5)#5
     + 140 x(6)#6 + 571 x(7)#7 + 101 x(8)#8 + 181 x(9)#9 + 362 x(10)#10
     + 439 x(11)#11 + 142 x(12)#12 + 401 x(13)#13 + 467 x(14)#14 + 385 x(15)#15
     + 910 x(16)#16 + 23 x(17)#17 + 407 x(18)#18 + 139 x(19)#19 + 268 x(20)#20
     + 691 x(21)#21 + 933 x(22)#22 + 546 x(23)#23 + 50 x(24)#24 + 965 x(25)#25
     + 55 x(26)#26 + 606 x(27)#27 + 319 x(28)#28 + 41 x(29)#29 + 630 x(30)#30
     + 346 x(31)#31 + 946 x(32)#32 + 41 x(33)#33 + 475 x(34)#34 + 194 x(35)#35
     + 547 x(36)#36 + 202 x(37)#37 + 536 x(38)#38 + 343 x(39)#39 + 697 x(40)#40
     + 697 x(41)#41 + 794 x(42)#42 + 676 x(43)#43 + 603 x(44)#44 + 44 x(45)#45
     + 88 x(46)#46 + 669 x(47)#47 + 311 x(48)#48 + 992 x(49)#49 + 8 x(50)#50
     + 165 x(51)#51 + 716 x(52)#52 + 590 x(53)#53 + 590 x(54)#54 + 636 x(55)#55
     + 288 x(56)#56 + 260 x(57)#57 + 28 x(58)#58 + 322 x(59)#59 + 929 x(60)#60
     + 437 x(61)#61 + 599 x(62)#62 + 79 x(63)#63 + 892 x(64)#64 + 120 x(65)#65
     + 255 x(66)#66 + 158 x(67)#67 + 319 x(68)#68 + 297 x(69)#69 + 373 x(70)#70
     + 540 x(71)#71 + 399 x(72)#72 + 946 x(73)#73 + 282 x(74)#74 + 813 x(75)#75
     + 576 x(76)#76 + 455 x(77)#77 + 595 x(78)#78 + 193 x(79)#79 + 320 x(80)#80
     + 916 x(81)#81 + 574 x(82)#82 + 632 x(83)#83 + 963 x(84)#84 + 351 x(85)#85
     + 636 x(86)#86 + 827 x(87)#87 + 228 x(88)#88 + 669 x(89)#89 + 836 x(90)#90
     + 294 x(91)#91 + 768 x(92)#92 + 917 x(93)#93 + 851 x(94)#94 + 351 x(95)#95
     + 642 x(96)#96 + 942 x(97)#97 + 645 x(98)#98 + 455 x(99)#99 <= 23724
 c5: 846 x(0)#0 + 738 x(1)#1 + 345 x(2)#2 + 51 x(3)#3 + 806 x(4)#4 + 255 x(5)#5
     + 88 x(6)#6 + 385 x(7)#7 + 574 x(8)#8 + 122 x(9)#9 + 620 x(10)#10
     + 899 x(11)#11 + 617 x(12)#12 + 50 x(13)#13 + 905 x(14)#14 + 190 x(15)#15
     + 271 x(16)#16 + 605 x(17)#17 + 213 x(18)#18 + 695 x(19)#19 + 133 x(20)#20
     + 805 x(21)#21 + 230 x(22)#22 + 322 x(23)#23 + 123 x(24)#24 + 833 x(25)#25
     + 312 x(26)#26 + 410 x(27)#27 + 691 x(28)#28 + 435 x(29)#29 + 851 x(30)#30
     + 79 x(31)#31 + 247 x(32)#32 + 636 x(33)#33 + 742 x(34)#34 + 371 x(35)#35
     + 383 x(36)#36 + 370 x(37)#37 + 685 x(38)#38 + 387 x(39)#39 + 661 x(40)#40
     + 260 x(41)#41 + 388 x(42)#42 + 573 x(43)#43 + 209 x(44)#44 + 227 x(45)#45
     + 313 x(46)#46 + 406 x(47)#47 + 155 x(48)#48 + 713 x(49)#49 + 522 x(50)#50
     + 657 x(51)#51 + 972 x(52)#52 + 7 x(53)#53 + 172 x(54)#54 + 358 x(55)#55
     + 299 x(56)#56 + 496 x(57)#57 + 271 x(58)#58 + 344 x(59)#59 + 936 x(60)#60
     + 638 x(61)#61 + 290 x(62)#62 + 709 x(63)#63 + 426 x(64)#64 + 600 x(65)#65
     + 978 x(66)#66 + 532 x(67)#67 + 530 x(68)#68 + 376 x(69)#69 + 754 x(70)#70
     + 800 x(71)#71 + 148 x(72)#72 + 350 x(73)#73 + 249 x(74)#74 + 838 x(75)#75
     + 344 x(76)#76 + 927 x(77)#77 + 622 x(78)#78 + 840 x(79)#79 + 908 x(80)#80
     + 67 x(81)#81 + 660 x(82)#82 + 895 x(83)#83 + 576 x(84)#84 + 953 x(85)#85
     + 365 x(86)#86 + 347 x(87)#87 + 919 x(88)#88 + 555 x(89)#89 + 608 x(90)#90
     + 546 x(91)#91 + 672 x(92)#92 + 241 x(93)#93 + 122 x(94)#94 + 481 x(95)#95
     + 840 x(96)#96 + 806 x(97)#97 + 526 x(98)#98 + 710 x(99)#99 <= 25004
Bounds
 0 <= x(0)#0 <= 1
 0 <= x(1)#1 <= 1
 0 <= x(2)#2 <= 1
 0 <= x(3)#3 <= 1
 0 <= x(4)#4 <= 1
 0 <= x(5)#5 <= 1
 0 <= x(6)#6 <= 1
 0 <= x(7)#7 <= 1
 0 <= x(8)#8 <= 1
 0 <= x(9)#9 <= 1
 0 <= x(10)#10 <= 1
 0 <= x(11)#11 <= 1
 0 <= x(12)#12 <= 1
 0 <= x(13)#13 <= 1
 0 <= x(14)#14 <= 1
 0 <= x(15)#15 <= 1
 0 <= x(16)#16 <= 1
 0 <= x(17)#17 <= 1
 0 <= x(18)#18 <= 1
 0 <= x(19)#19 <= 1
 0 <= x(20)#20 <= 1
 0 <= x(21)#21 <= 1
 0 <= x(22)#22 <= 1
 0 <= x(23)#23 <= 1
 0 <= x(24)#24 <= 1
 0 <= x(25)#25 <= 1
 0 <= x(26)#26 <= 1
 0 <= x(27)#27 <= 1
 0 <= x(28)#28 <= 1
 0 <= x(29)#29 <= 1
 0 <= x(30)#30 <= 1
 0 <= x(31)#31 <= 1
 0 <= x(32)#32 <= 1
 0 <= x(33)#33 <= 1
 0 <= x(34)#34 <= 1
 0 <= x(35)#35 <= 1
 0 <= x(36)#36 <= 1
 0 <= x(37)#37 <= 1
 0 <= x(38)#38 <= 1
 0 <= x(39)#39 <= 1
 0 <= x(40)#40 <= 1
 0 <= x(41)#41 <= 1
 0 <= x(42)#42 <= 1
 0 <= x(43)#43 <= 1
 0 <= x(44)#44 <= 1
 0 <= x(45)#45 <= 1
 0 <= x(46)#46 <= 1
 0 <= x(47)#47 <= 1
 0 <= x(48)#48 <= 1
 0 <= x(49)#49 <= 1
 0 <= x(50)#50 <= 1
 0 <= x(51)#51 <= 1
 0 <= x(52)#52 <= 1
 0 <= x(53)#53 <= 1
 0 <= x(54)#54 <= 1
 0 <= x(55)#55 <= 1
 0 <= x(56)#56 <= 1
 0 <= x(57)#57 <= 1
 0 <= x(58)#58 <= 1
 0 <= x(59)#59 <= 1
 0 <= x(60)#60 <= 1
 0 <= x(61)#61 <= 1
 0 <= x(62)#62 <= 1
 0 <= x(63)#63 <= 1
 0 <= x(64)#64 <= 1
 0 <= x(65)#65 <= 1
 0 <= x(66)#66 <= 1
 0 <= x(67)#67 <= 1
 0 <= x(68)#68 <= 1
 0 <= x(69)#69 <= 1
 0 <= x(70)#70 <= 1
 0 <= x(71)#71 <= 1
 0 <= x(72)#72 <= 1
 0 <= x(73)#73 <= 1
 0 <= x(74)#74 <= 1
 0 <= x(75)#75 <= 1
 0 <= x(76)#76 <= 1
 0 <= x(77)#77 <= 1
 0 <= x(78)#78 <= 1
 0 <= x(79)#79 <= 1
 0 <= x(80)#80 <= 1
 0 <= x(81)#81 <= 1
 0 <= x(82)#82 <= 1
 0 <= x(83)#83 <= 1
 0 <= x(84)#84 <= 1
 0 <= x(85)#85 <= 1
 0 <= x(86)#86 <= 1
 0 <= x(87)#87 <= 1
 0 <= x(88)#88 <= 1
 0 <= x(89)#89 <= 1
 0 <= x(90)#90 <= 1
 0 <= x(91)#91 <= 1
 0 <= x(92)#92 <= 1
 0 <= x(93)#93 <= 1
 0 <= x(94)#94 <= 1
 0 <= x(95)#95 <= 1
 0 <= x(96)#96 <= 1
 0 <= x(97)#97 <= 1
 0 <= x(98)#98 <= 1
 0 <= x(99)#99 <= 1
Generals
 x(0)#0  x(1)#1  x(2)#2  x(3)#3  x(4)#4  x(5)#5  x(6)#6  x(7)#7  x(8)#8 
 x(9)#9  x(10)#10  x(11)#11  x(12)#12  x(13)#13  x(14)#14  x(15)#15  x(16)#16 
 x(17)#17  x(18)#18  x(19)#19  x(20)#20  x(21)#21  x(22)#22  x(23)#23 
 x(24)#24  x(25)#25  x(26)#26  x(27)#27  x(28)#28  x(29)#29  x(30)#30 
 x(31)#31  x(32)#32  x(33)#33  x(34)#34  x(35)#35  x(36)#36  x(37)#37 
 x(38)#38  x(39)#39  x(40)#40  x(41)#41  x(42)#42  x(43)#43  x(44)#44 
 x(45)#45  x(46)#46  x(47)#47  x(48)#48  x(49)#49  x(50)#50  x(51)#51 
 x(52)#52  x(53)#53  x(54)#54  x(55)#55  x(56)#56  x(57)#57  x(58)#58 
 x(59)#59  x(60)#60  x(61)#61  x(62)#62  x(63)#63  x(64)#64  x(65)#65 
 x(66)#66  x(67)#67  x(68)#68  x(69)#69  x(70)#70  x(71)#71  x(72)#72 
 x(73)#73  x(74)#74  x(75)#75  x(76)#76  x(77)#77  x(78)#78  x(79)#79 
 x(80)#80  x(81)#81  x(82)#82  x(83)#83  x(84)#84  x(85)#85  x(86)#86 
 x(87)#87  x(88)#88  x(89)#89  x(90)#90  x(91)#91  x(92)#92  x(93)#93 
 x(94)#94  x(95)#95  x(96)#96  x(97)#97  x(98)#98  x(99)#99 
End
